Read MPS format model from file dat/rmp/4node-base_8192_22.mps
Reading time = 0.55 seconds
: 8252 rows, 43399 columns, 1590417 nonzeros
Gurobi Optimizer version 9.0.0 build v9.0.0rc2 (linux64)
Optimize a model with 8252 rows, 43399 columns and 1590417 nonzeros
Model fingerprint: 0x9560a0fd
Coefficient statistics:
  Matrix range     [7e-04, 2e+01]
  Objective range  [9e-03, 1e+04]
  Bounds range     [0e+00, 0e+00]
  RHS range        [1e+00, 8e+01]
Ordering time: 0.01s

Barrier statistics:
 AA' NZ     : 4.200e+05
 Factor NZ  : 5.208e+05 (roughly 25 MBytes of memory)
 Factor Ops : 3.357e+07 (less than 1 second per iteration)
 Threads    : 1

                  Objective                Residual
Iter       Primal          Dual         Primal    Dual     Compl     Time
   0   2.11605050e+07  0.00000000e+00  5.30e+02 2.40e+02  4.55e+04     0s
   1   2.58313564e+05 -4.45074519e+07  5.58e+00 9.47e+02  1.66e+03     0s
   2   4.97924865e+03 -8.44503934e+06  2.87e-11 1.10e+01  1.97e+02     1s
   3   8.33146131e+02 -1.09224033e+06  2.95e-12 9.69e-01  2.54e+01     1s
   4  -2.41696665e+02 -1.34200839e+05  2.44e-12 1.10e-01  3.11e+00     1s
   5  -2.92165696e+02 -3.30927856e+03  5.81e-11 1.49e-03  6.98e-02     1s
   6  -3.32617238e+02 -7.36009937e+02  1.04e-08 1.34e-04  9.33e-03     1s
   7  -3.61213788e+02 -5.71661261e+02  1.87e-08 3.65e-05  4.86e-03     1s
   8  -3.89855483e+02 -4.66377073e+02  4.17e-08 7.54e-06  1.77e-03     1s
   9  -4.01894544e+02 -4.41698356e+02  8.50e-08 1.06e-06  9.18e-04     1s
  10  -4.15317161e+02 -4.31766403e+02  2.78e-07 3.36e-07  3.79e-04     1s
  11  -4.21006194e+02 -4.25744030e+02  6.43e-07 2.59e-08  1.09e-04     1s
  12  -4.24193814e+02 -4.25019117e+02  7.71e-07 1.94e-09  1.90e-05     2s
  13  -4.24193944e+02 -4.24888881e+02  8.68e-07 8.51e-10  1.60e-05     2s
  14  -4.24194285e+02 -4.24802296e+02  2.94e-06 1.78e-10  1.40e-05     2s
  15  -4.24200135e+02 -4.24786890e+02  5.20e-06 3.12e-11  1.35e-05     2s
  16  -4.24201930e+02 -4.24784857e+02  5.14e-06 8.65e-11  1.34e-05     2s
  17  -4.24202012e+02 -4.24782730e+02  7.59e-06 6.73e-11  1.34e-05     3s
  18  -4.24219160e+02 -4.24777115e+02  1.26e-05 1.46e-11  1.28e-05     3s
  19  -4.24235862e+02 -4.24776472e+02  1.62e-05 1.46e-11  1.24e-05     3s
  20  -4.24289603e+02 -4.24775909e+02  3.43e-05 1.46e-11  1.12e-05     3s
  21  -4.24525598e+02 -4.24774640e+02  4.30e-05 1.46e-11  5.72e-06     3s
  22  -4.24544159e+02 -4.24773492e+02  1.32e-04 1.46e-11  5.24e-06     3s
  23  -4.24596299e+02 -4.24773542e+02  9.80e-05 1.46e-11  4.05e-06     3s
  24  -4.24762671e+02 -4.24773043e+02  4.47e-06 1.46e-11  2.40e-07     3s
  25  -4.24772632e+02 -4.24772879e+02  3.23e-06 2.91e-11  4.64e-09     3s
  26  -4.24772765e+02 -4.24772870e+02  2.11e-06 1.46e-11  1.43e-09     4s
  27  -4.24772868e+02 -4.24772869e+02  4.61e-08 1.46e-11  6.92e-12     4s

Barrier solved model in 27 iterations and 3.65 seconds
Optimal objective -4.24772868e+02

Solve time: 3.651871373
Barrier iterations: 27
